NAME : 10_3_3_2_(45).dat
COMMENT : Henke, Speranza, Wäscher, 2015
TYPE : MCVRP
DIMENSION : 11
EDGE_WEIGHT_TYPE : DISTANCE_MATRIX
CAPACITY : 1000
VEHICLES : 3
PRODUCT TYPES : 3
COMPARTMENTS : 3
NODE_COORD_SECTION
1 50 50
2 91.22 22.14
3 12.81 29.24
4 56.02 88.8
5 14.34 23.32
6 8.34 51.69
7 75.07 96.47
8 27.56 47.08
9 90.17 16.72
10 1.94 39.96
11 33.04 38.02
DEMAND_SECTION
1 0 0 0
2 146 129 0
3 0 125 125
4 206 71 0
5 149 0 11
6 3 54 0
7 46 15 0
8 0 33 119
9 118 64 0
10 18 12 0
11 152 0 79
DEPOT_SECTION
1
EOF